38
6
28
1238
5
12789
138
12378
4
348
2348
9
123468
3678
124678
1368
1235678
123678
7
1
5
23468
3689
24689
368
2368
23689
489
24789
3
268
1
2689
468
678
5
4589
4589
468
7
689
3
2
168
168
8
278
1
268
4
5
368
9
3678
13458
3458
7
134568
368
1468
9
12368
12368
2
389
8
1368
3678
1678
5
4
1368
6
3458
48
9
2
148
7
138
138